solution status: optimal solution found
objective value:                     237912.501704082
d11(0,0)                                            1 	(obj:0)
d11(1,1)                                            1 	(obj:0)
d11(1,2)                                            1 	(obj:0)
d11(2,3)                                            1 	(obj:0)
d11(2,5)                                            1 	(obj:0)
d11(2,6)                                            1 	(obj:0)
d11(3,7)                                            1 	(obj:0)
d11(3,9)                                            1 	(obj:0)
d11(3,11)                                           1 	(obj:0)
d11(3,13)                                           1 	(obj:0)
d11(4,15)                                           1 	(obj:0)
d11(4,16)                                           1 	(obj:0)
d11(4,17)                                           1 	(obj:0)
d11(4,19)                                           1 	(obj:0)
d11(4,21)                                           1 	(obj:0)
d11(4,23)                                           1 	(obj:0)
d11(4,25)                                           1 	(obj:0)
d11(4,27)                                           1 	(obj:0)
d11(4,29)                                           1 	(obj:0)
d11(5,31)                                           1 	(obj:0)
d11(5,33)                                           1 	(obj:0)
d11(5,35)                                           1 	(obj:0)
d11(5,37)                                           1 	(obj:0)
d11(5,39)                                           1 	(obj:0)
d11(5,41)                                           1 	(obj:0)
d11(5,43)                                           1 	(obj:0)
d11(5,44)                                           1 	(obj:0)
d11(5,45)                                           1 	(obj:0)
d11(5,47)                                           1 	(obj:0)
d11(5,49)                                           1 	(obj:0)
d11(5,51)                                           1 	(obj:0)
d11(5,53)                                           1 	(obj:0)
d11(5,55)                                           1 	(obj:0)
d11(5,57)                                           1 	(obj:0)
d11(5,59)                                           1 	(obj:0)
d11(5,61)                                           1 	(obj:0)
d12(6,64)                                           1 	(obj:0)
d12(6,66)                                           1 	(obj:0)
d12(6,68)                                           1 	(obj:0)
d12(6,70)                                           1 	(obj:0)
d12(6,72)                                           1 	(obj:0)
d12(6,74)                                           1 	(obj:0)
d12(6,76)                                           1 	(obj:0)
d12(6,78)                                           1 	(obj:0)
d12(6,80)                                           1 	(obj:0)
d12(6,82)                                           1 	(obj:0)
d12(6,84)                                           1 	(obj:0)
d12(6,86)                                           1 	(obj:0)
d12(6,88)                                           1 	(obj:0)
d12(6,90)                                           1 	(obj:0)
d12(6,92)                                           1 	(obj:0)
d12(6,94)                                           1 	(obj:0)
d12(6,96)                                           1 	(obj:0)
d12(6,98)                                           1 	(obj:0)
d12(6,100)                                          1 	(obj:0)
d12(6,102)                                          1 	(obj:0)
d12(6,104)                                          1 	(obj:0)
d12(6,106)                                          1 	(obj:0)
d12(6,108)                                          1 	(obj:0)
d12(6,110)                                          1 	(obj:0)
d12(6,112)                                          1 	(obj:0)
d12(6,114)                                          1 	(obj:0)
d12(6,116)                                          1 	(obj:0)
d12(6,118)                                          1 	(obj:0)
d12(6,120)                                          1 	(obj:0)
d12(6,122)                                          1 	(obj:0)
d12(6,124)                                          1 	(obj:0)
d12(6,126)                                          1 	(obj:0)
d21(4,15)                                           1 	(obj:0)
d21(5,31)                                           1 	(obj:0)
d21(5,32)                                           1 	(obj:0)
d21(5,33)                                           1 	(obj:0)
d21(5,34)                                           1 	(obj:0)
d21(5,35)                                           1 	(obj:0)
d21(5,36)                                           1 	(obj:0)
d21(5,37)                                           1 	(obj:0)
d21(5,39)                                           1 	(obj:0)
d21(5,40)                                           1 	(obj:0)
d21(5,41)                                           1 	(obj:0)
d21(5,43)                                           1 	(obj:0)
d21(5,47)                                           1 	(obj:0)
d21(5,48)                                           1 	(obj:0)
d21(5,49)                                           1 	(obj:0)
d21(5,51)                                           1 	(obj:0)
d21(5,55)                                           1 	(obj:0)
d21(6,63)                                           1 	(obj:0)
d21(6,64)                                           1 	(obj:0)
d21(6,65)                                           1 	(obj:0)
d21(6,66)                                           1 	(obj:0)
d21(6,67)                                           1 	(obj:0)
d21(6,68)                                           1 	(obj:0)
d21(6,69)                                           1 	(obj:0)
d21(6,70)                                           1 	(obj:0)
d21(6,71)                                           1 	(obj:0)
d21(6,72)                                           1 	(obj:0)
d21(6,73)                                           1 	(obj:0)
d21(6,74)                                           1 	(obj:0)
d21(6,75)                                           1 	(obj:0)
d21(6,76)                                           1 	(obj:0)
d21(6,79)                                           1 	(obj:0)
d21(6,80)                                           1 	(obj:0)
d21(6,81)                                           1 	(obj:0)
d21(6,82)                                           1 	(obj:0)
d21(6,83)                                           1 	(obj:0)
d21(6,84)                                           1 	(obj:0)
d21(6,87)                                           1 	(obj:0)
d21(6,88)                                           1 	(obj:0)
d21(6,89)                                           1 	(obj:0)
d21(6,91)                                           1 	(obj:0)
d21(6,95)                                           1 	(obj:0)
d21(6,96)                                           1 	(obj:0)
d21(6,97)                                           1 	(obj:0)
d21(6,98)                                           1 	(obj:0)
d21(6,99)                                           1 	(obj:0)
d21(6,100)                                          1 	(obj:0)
d21(6,103)                                          1 	(obj:0)
d21(6,104)                                          1 	(obj:0)
d21(6,111)                                          1 	(obj:0)
d21(6,112)                                          1 	(obj:0)
d21(6,119)                                          1 	(obj:0)
y2(6,100)                            1385.48851144895 	(obj:0)
y2(6,102)                            1385.48851144895 	(obj:0)
y2(6,104)                            1385.48851144895 	(obj:0)
y2(6,106)                            1385.48851144895 	(obj:0)
y2(6,108)                            1385.48851144895 	(obj:0)
y2(6,110)                            1385.48851144895 	(obj:0)
y2(6,112)                            1385.48851144895 	(obj:0)
y2(6,114)                            1385.48851144895 	(obj:0)
y2(6,116)                            1385.48851144895 	(obj:0)
y2(6,118)                            1385.48851144895 	(obj:0)
y2(6,120)                            1385.48851144895 	(obj:0)
y2(6,122)                            1385.48851144895 	(obj:0)
y2(6,124)                            1385.48851144895 	(obj:0)
y2(6,126)                            1385.48851144895 	(obj:0)
STE(1,1)                             12683.2498988888 	(obj:0)
STE(0,0)                                        15750 	(obj:0)
STE(1,2)                             14341.4997977777 	(obj:0)
STE(2,3)                                         9765 	(obj:0)
STE(2,4)                             11423.2498988888 	(obj:0)
STE(2,5)                             11423.2498988888 	(obj:0)
STE(2,6)                             13081.4997977776 	(obj:0)
STE(3,7)                             6846.75010111115 	(obj:0)
STE(3,8)                                         8505 	(obj:0)
STE(3,9)                                         8505 	(obj:0)
STE(3,10)                            10163.2498988888 	(obj:0)
STE(3,11)                            8504.99999999997 	(obj:0)
STE(3,12)                            10163.2498988888 	(obj:0)
STE(3,13)                            10163.2498988888 	(obj:0)
STE(3,14)                            11821.4997977776 	(obj:0)
STE(4,15)                            3928.50020222231 	(obj:0)
STE(4,16)                            5586.75010111113 	(obj:0)
STE(4,17)                            5586.75010111115 	(obj:0)
STE(4,18)                                        7245 	(obj:0)
STE(4,19)                            5586.75010111115 	(obj:0)
STE(4,20)                                        7245 	(obj:0)
STE(4,21)                                        7245 	(obj:0)
STE(4,22)                            8903.24989888885 	(obj:0)
STE(4,23)                            5586.75010111113 	(obj:0)
STE(4,24)                            7244.99999999997 	(obj:0)
STE(4,25)                                        7245 	(obj:0)
STE(4,26)                            8903.24989888884 	(obj:0)
STE(4,27)                            7244.99999999995 	(obj:0)
STE(4,28)                            8903.24989888879 	(obj:0)
STE(4,29)                            8903.24989888879 	(obj:0)
STE(4,30)                            10561.4997977776 	(obj:0)
STE(5,31)                            1010.25030333346 	(obj:0)
STE(5,32)                            2668.50020222231 	(obj:0)
STE(5,33)                            2668.50020222228 	(obj:0)
STE(5,34)                            4326.75010111113 	(obj:0)
STE(5,35)                            2668.50020222231 	(obj:0)
STE(5,36)                            4326.75010111115 	(obj:0)
STE(5,37)                            4326.75010111116 	(obj:0)
STE(5,38)                                        5985 	(obj:0)
STE(5,39)                            2668.50020222231 	(obj:0)
STE(5,40)                            4326.75010111115 	(obj:0)
STE(5,41)                            4326.75010111116 	(obj:0)
STE(5,42)                                        5985 	(obj:0)
STE(5,43)                            4326.75010111116 	(obj:0)
STE(5,44)                                        5985 	(obj:0)
STE(5,45)                                        5985 	(obj:0)
STE(5,46)                            7643.24989888885 	(obj:0)
STE(5,47)                            2668.50020222228 	(obj:0)
STE(5,48)                            4326.75010111113 	(obj:0)
STE(5,49)                            4326.75010111113 	(obj:0)
STE(5,50)                            5984.99999999997 	(obj:0)
STE(5,51)                            4326.75010111116 	(obj:0)
STE(5,52)                                        5985 	(obj:0)
STE(5,53)                                        5985 	(obj:0)
STE(5,54)                            7643.24989888884 	(obj:0)
STE(5,55)                             4326.7501011111 	(obj:0)
STE(5,56)                            5984.99999999995 	(obj:0)
STE(5,57)                            5984.99999999995 	(obj:0)
STE(5,58)                            7643.24989888879 	(obj:0)
STE(5,59)                            5984.99999999995 	(obj:0)
STE(5,60)                            7643.24989888879 	(obj:0)
STE(5,61)                            7643.24989888879 	(obj:0)
STE(5,62)                            9301.49979777764 	(obj:0)
STE(6,63)                           -249.749696666537 	(obj:0)
STE(6,64)                            1066.46438920997 	(obj:0)
STE(6,65)                            1408.50020222231 	(obj:0)
STE(6,66)                            2724.71428809881 	(obj:0)
STE(6,67)                            1408.50020222228 	(obj:0)
STE(6,68)                            2724.71428809879 	(obj:0)
STE(6,69)                            3066.75010111113 	(obj:0)
STE(6,70)                            4382.96418698763 	(obj:0)
STE(6,71)                            1408.50020222231 	(obj:0)
STE(6,72)                            2724.71428809882 	(obj:0)
STE(6,73)                            3066.75010111115 	(obj:0)
STE(6,74)                            4382.96418698766 	(obj:0)
STE(6,75)                            3066.75010111116 	(obj:0)
STE(6,76)                            4382.96418698766 	(obj:0)
STE(6,77)                                        4725 	(obj:0)
STE(6,78)                            6041.21408587651 	(obj:0)
STE(6,79)                            1408.50020222231 	(obj:0)
STE(6,80)                            2724.71428809882 	(obj:0)
STE(6,81)                            3066.75010111115 	(obj:0)
STE(6,82)                            4382.96418698766 	(obj:0)
STE(6,83)                            3066.75010111116 	(obj:0)
STE(6,84)                            4382.96418698766 	(obj:0)
STE(6,85)                                        4725 	(obj:0)
STE(6,86)                            6041.21408587651 	(obj:0)
STE(6,87)                            3066.75010111116 	(obj:0)
STE(6,88)                            4382.96418698766 	(obj:0)
STE(6,89)                                        4725 	(obj:0)
STE(6,90)                            6041.21408587651 	(obj:0)
STE(6,91)                                        4725 	(obj:0)
STE(6,92)                            6041.21408587651 	(obj:0)
STE(6,93)                            6383.24989888885 	(obj:0)
STE(6,94)                            7699.46398476535 	(obj:0)
STE(6,95)                            1408.50020222228 	(obj:0)
STE(6,96)                            2724.71428809879 	(obj:0)
STE(6,97)                            3066.75010111113 	(obj:0)
STE(6,98)                            4382.96418698763 	(obj:0)
STE(6,99)                            3066.75010111113 	(obj:0)
STE(6,100)                           4382.96418698763 	(obj:0)
STE(6,101)                           4724.99999999997 	(obj:0)
STE(6,102)                           6041.21408587648 	(obj:0)
STE(6,103)                           3066.75010111116 	(obj:0)
STE(6,104)                           4382.96418698766 	(obj:0)
STE(6,105)                                       4725 	(obj:0)
STE(6,106)                           6041.21408587651 	(obj:0)
STE(6,107)                                       4725 	(obj:0)
STE(6,108)                            6041.2140858765 	(obj:0)
STE(6,109)                           6383.24989888884 	(obj:0)
STE(6,110)                           7699.46398476535 	(obj:0)
STE(6,111)                            3066.7501011111 	(obj:0)
STE(6,112)                           4382.96418698761 	(obj:0)
STE(6,113)                           4724.99999999995 	(obj:0)
STE(6,114)                           6041.21408587645 	(obj:0)
STE(6,115)                           4724.99999999995 	(obj:0)
STE(6,116)                           6041.21408587645 	(obj:0)
STE(6,117)                           6383.24989888879 	(obj:0)
STE(6,118)                            7699.4639847653 	(obj:0)
STE(6,119)                           4724.99999999995 	(obj:0)
STE(6,120)                           6041.21408587645 	(obj:0)
STE(6,121)                           6383.24989888879 	(obj:0)
STE(6,122)                            7699.4639847653 	(obj:0)
STE(6,123)                           6383.24989888879 	(obj:0)
STE(6,124)                            7699.4639847653 	(obj:0)
STE(6,125)                           8041.49979777764 	(obj:0)
STE(6,126)                           9357.71388365414 	(obj:0)
BG(5)                                4196.29249897959 	(obj:10)
BG(6)                                2673.40993877551 	(obj:10)
AVE(1)                               3259.55177567504 	(obj:0)
AVE(2)                               3259.55588804169 	(obj:0)
AVE(3)                               3579.36165209166 	(obj:0)
AVE(4)                               3579.36576445831 	(obj:0)
WB(5)                                3472.77007794174 	(obj:0)
AVE(5)                               3472.77007794174 	(obj:0)
WB(6)                                 3046.3618950668 	(obj:0)
AVE(6)                                3046.3618950668 	(obj:0)
WG(1)                                3259.55177567504 	(obj:10)
WG(2)                                3259.55588804169 	(obj:10)
WG(3)                                3579.36165209166 	(obj:10)
WG(4)                                3579.36576445831 	(obj:10)
BG(1)                                1073.11846003933 	(obj:10)
BG(2)                                936.736610937901 	(obj:10)
BG(3)                                616.930846887931 	(obj:10)
BG(4)                                616.926734521281 	(obj:10)
y1(1,1)                              1626.07509100004 	(obj:0)
y1(1,2)                              133.650182000104 	(obj:0)
y1(2,3)                              1492.42490899996 	(obj:0)
y1(2,5)                              1492.42490899996 	(obj:0)
y1(3,7)                              1492.42490899996 	(obj:0)
y1(3,9)                              1492.42490899996 	(obj:0)
y1(3,11)                             1492.42490899996 	(obj:0)
y1(3,13)                             1492.42490899996 	(obj:0)
y1(4,15)                             1492.42490899996 	(obj:0)
y1(4,17)                             1492.42490899996 	(obj:0)
y1(4,19)                             1492.42490899996 	(obj:0)
y1(4,21)                             1492.42490899996 	(obj:0)
y1(4,23)                             1492.42490899996 	(obj:0)
y1(4,25)                             1492.42490899996 	(obj:0)
y1(4,27)                             1492.42490899996 	(obj:0)
y1(4,29)                             1492.42490899996 	(obj:0)
y1(5,31)                             1492.42490899996 	(obj:0)
y1(5,33)                             1492.42490899996 	(obj:0)
y1(5,35)                             1492.42490899996 	(obj:0)
y1(5,37)                             1492.42490899996 	(obj:0)
y1(5,39)                             1492.42490899996 	(obj:0)
y1(5,41)                             1492.42490899996 	(obj:0)
y1(5,43)                             1492.42490899996 	(obj:0)
y1(5,45)                             1492.42490899996 	(obj:0)
y1(5,47)                             1492.42490899996 	(obj:0)
y1(5,49)                             1492.42490899996 	(obj:0)
y1(5,51)                             1492.42490899996 	(obj:0)
y1(5,53)                             1492.42490899996 	(obj:0)
y1(5,55)                             1492.42490899996 	(obj:0)
y1(5,57)                             1492.42490899996 	(obj:0)
y1(5,59)                             1492.42490899996 	(obj:0)
y1(5,61)                             1492.42490899996 	(obj:0)
y2(6,64)                             1385.48851144895 	(obj:0)
y2(6,66)                             1385.48851144895 	(obj:0)
y2(6,68)                             1385.48851144895 	(obj:0)
y2(6,70)                             1385.48851144895 	(obj:0)
y2(6,72)                             1385.48851144895 	(obj:0)
y2(6,74)                             1385.48851144895 	(obj:0)
y2(6,76)                             1385.48851144895 	(obj:0)
y2(6,78)                             1385.48851144895 	(obj:0)
y2(6,80)                             1385.48851144895 	(obj:0)
y2(6,82)                             1385.48851144895 	(obj:0)
y2(6,84)                             1385.48851144895 	(obj:0)
y2(6,86)                             1385.48851144895 	(obj:0)
y2(6,88)                             1385.48851144895 	(obj:0)
y2(6,90)                             1385.48851144895 	(obj:0)
y2(6,92)                             1385.48851144895 	(obj:0)
y2(6,94)                             1385.48851144895 	(obj:0)
y2(6,96)                             1385.48851144895 	(obj:0)
y2(6,98)                             1385.48851144895 	(obj:0)
